Input: ticf-13crafc.prec25.dzn
============================================================
Total Runtime: 9.7143 seconds
Input parsing: 0.0013 seconds
Constraint building: 1.9864 seconds
MaxSAT solving: 5.2653 seconds
============================================================

Total variables: 465617
Total clauses: 761644
MaxSAT found with cost: 0
NO SOLUTION FOUND
